
Gurobi 6.5.2 (linux64) logging started Wed Mar 15 12:54:58 2017


Gurobi 6.5.2 (linux64) logging started Wed Mar 15 12:54:58 2017

Optimize a model with 201 rows, 3565 columns and 7133 nonzeros
Coefficient statistics:
  Matrix range    [1e+00, 2e+00]
  Objective range [1e+00, 1e+02]
  Bounds range    [1e+00, 1e+00]
  RHS range       [1e+00, 1e+00]
Presolve removed 100 rows and 98 columns
Presolve time: 0.02s
Presolved: 101 rows, 3467 columns, 6935 nonzeros
Variable types: 0 continuous, 3467 integer (3467 binary)

Root relaxation: objective 9.595000e+02, 147 iterations, 0.00 seconds

    Nodes    |    Current Node    |     Objective Bounds      |     Work
 Expl Unexpl |  Obj  Depth IntInf | Incumbent    BestBd   Gap | It/Node Time

     0     0  959.50000    0   20          -  959.50000      -     -    0s
     0     0  964.00000    0   24          -  964.00000      -     -    0s
     0     0  965.00000    0   14          -  965.00000      -     -    0s
     0     0  965.00000    0    4          -  965.00000      -     -    0s
     0     0  965.03704    0   17          -  965.03704      -     -    0s
     0     0  965.03704    0   17          -  965.03704      -     -    0s
     0     2  965.03704    0   17          -  965.03704      -     -    0s
  1818  1362  983.33333   60   18          -  974.32808      -   6.5    5s
* 3291  1826              71    1021.0000000  974.50000  4.55%   6.4    5s
* 4509  1319              46    1002.0000000  977.00000  2.50%   6.1    7s
* 5696   546              37     991.0000000  978.50000  1.26%   5.8    7s
* 6232   298              32     990.0000000  980.00000  1.01%   6.0    7s

Cutting planes:
  Gomory: 10
  Flow cover: 2
  Zero half: 16
  Lazy constraints: 538

Explored 6565 nodes (38992 simplex iterations) in 8.15 seconds
Thread count was 8 (of 8 available processors)

Optimal solution found (tolerance 1.00e-04)
Best objective 9.900000000000e+02, best bound 9.900000000000e+02, gap 0.0%
